c colouring generated by benchmark framework
p edge 138 493
v 1 5
v 2 3
v 3 1
v 4 4
v 5 4
v 6 8
v 7 0
v 8 1
v 9 8
v 10 6
v 11 7
v 12 7
v 13 0
v 14 0
v 15 2
v 16 1
v 17 0
v 18 3
v 19 2
v 20 7
v 21 10
v 22 2
v 23 0
v 24 3
v 25 5
v 26 4
v 27 10
v 28 0
v 29 9
v 30 5
v 31 0
v 32 6
v 33 8
v 34 2
v 35 0
v 36 6
v 37 5
v 38 10
v 39 2
v 40 7
v 41 1
v 42 2
v 43 9
v 44 5
v 45 7
v 46 8
v 47 7
v 48 7
v 49 0
v 50 6
v 51 1
v 52 5
v 53 9
v 54 3
v 55 7
v 56 10
v 57 5
v 58 1
v 59 0
v 60 0
v 61 4
v 62 5
v 63 1
v 64 2
v 65 1
v 66 10
v 67 9
v 68 9
v 69 4
v 70 4
v 71 7
v 72 1
v 73 9
v 74 4
v 75 10
v 76 7
v 77 2
v 78 6
v 79 7
v 80 8
v 81 9
v 82 3
v 83 9
v 84 3
v 85 7
v 86 8
v 87 0
v 88 8
v 89 0
v 90 9
v 91 10
v 92 5
v 93 9
v 94 1
v 95 0
v 96 0
v 97 1
v 98 8
v 99 8
v 100 5
v 101 7
v 102 6
v 103 1
v 104 2
v 105 5
v 106 2
v 107 9
v 108 8
v 109 3
v 110 6
v 111 0
v 112 0
v 113 9
v 114 2
v 115 2
v 116 7
v 117 5
v 118 1
v 119 0
v 120 4
v 121 9
v 122 10
v 123 2
v 124 3
v 125 7
v 126 2
v 127 0
v 128 6
v 129 0
v 130 2
v 131 10
v 132 0
v 133 5
v 134 0
v 135 2
v 136 1
v 137 10
v 138 5
